data;


param d:= 100;
param r:=5;
param p:=0.500000;
param M:=1000;
param U:=
         1         1        1.113793e+00
         2         1        6.488454e-01
         3         1        1.910789e+00
         4         1        6.219280e-01
         5         1        1.902149e-01
         6         1        1.222355e+00
         7         1       -4.401204e-01
         8         1        2.721343e-01
         9         1       -1.024672e+00
        10         1        5.307878e-01
        11         1       -4.023545e-01
        12         1       -8.191615e-01
        13         1       -2.510212e-01
        14         1       -8.924919e-01
        15         1        1.408400e+00
        16         1        6.279764e-01
        17         1       -1.125219e+00
        18         1       -1.240586e+00
        19         1        9.018542e-01
        20         1       -9.144477e-01
        21         1       -4.768361e-01
        22         1       -3.547241e-01
        23         1        1.027238e-01
        24         1       -4.877461e-01
        25         1        6.682584e-01
        26         1        1.791034e+00
        27         1        1.783836e+00
        28         1        1.990702e-02
        29         1        1.407279e+00
        30         1       -5.527588e-01
        31         1       -5.377590e-01
        32         1        1.160978e+00
        33         1       -1.415401e+00
        34         1       -7.945844e-01
        35         1        4.716901e-01
        36         1       -7.547149e-01
        37         1       -1.993708e-01
        38         1        8.668198e-01
        39         1        1.154150e+00
        40         1       -1.675900e+00
        41         1        3.299736e-02
        42         1        4.905508e-02
        43         1       -6.287387e-02
        44         1        5.266437e-01
        45         1       -6.224993e-01
        46         1        1.042807e+00
        47         1        3.232110e-01
        48         1        1.014623e+00
        49         1       -2.623220e-01
        50         1       -5.471015e-01
        51         1        4.822936e-01
        52         1       -9.958885e-01
        53         1        1.773786e+00
        54         1        1.287554e+00
        55         1       -2.166417e-01
        56         1        2.200639e-01
        57         1        5.985060e-01
        58         1       -6.257202e-01
        59         1        9.885841e-01
        60         1        7.800047e-02
        61         1        2.069292e+00
        62         1        6.360326e-01
        63         1       -2.702673e-01
        64         1       -3.463698e-01
        65         1       -4.781584e-02
        66         1       -1.297185e-01
        67         1        1.596678e-01
        68         1        5.510475e-01
        69         1       -7.921272e-01
        70         1       -3.894322e-01
        71         1       -7.739144e-01
        72         1        3.245445e-01
        73         1        6.316961e-01
        74         1        3.943665e-01
        75         1        5.335472e-01
        76         1       -2.966184e-02
        77         1        1.130217e+00
        78         1       -1.139842e-01
        79         1        6.832603e-01
        80         1        1.618125e+00
        81         1        2.289366e+00
        82         1       -3.194777e+00
        83         1       -1.697299e+00
        84         1       -1.445541e+00
        85         1       -4.888978e-01
        86         1       -3.357819e-01
        87         1       -2.136028e+00
        88         1       -6.199187e-01
        89         1        1.727314e-02
        90         1       -1.424518e+00
        91         1        5.167989e-01
        92         1       -1.598155e-01
        93         1        1.104970e-01
        94         1       -1.496236e+00
        95         1       -4.435228e-01
        96         1        1.154089e+00
        97         1       -9.731507e-01
        98         1       -3.198304e-01
        99         1        1.951741e+00
       100         1       -1.177658e+00
         1         2        5.580498e-01
         2         2        6.160625e-01
         3         2       -1.506657e+00
         4         2       -1.245784e+00
         5         2        1.148061e+00
         6         2        6.755221e-01
         7         2        5.180599e-01
         8         2        8.738367e-01
         9         2       -8.370830e-01
        10         2       -7.382855e-01
        11         2        1.643771e-02
        12         2        7.325276e-01
        13         2        1.045071e+00
        14         2        1.279599e+00
        15         2        6.800761e-01
        16         2       -1.142685e+00
        17         2        4.809155e-01
        18         2       -1.961264e-01
        19         2        2.537007e-01
        20         2        1.162754e+00
        21         2        1.185132e+00
        22         2        4.341033e-01
        23         2        1.527519e+00
        24         2        4.363113e-01
        25         2        1.036137e+00
        26         2       -1.177433e+00
        27         2       -1.508814e-01
        28         2        4.244495e-01
        29         2       -9.983394e-01
        30         2       -1.544714e+00
        31         2        1.144431e+00
        32         2       -1.041634e+00
        33         2       -1.523424e+00
        34         2        2.780693e+00
        35         2        6.292189e-01
        36         2       -2.345307e-01
        37         2       -6.469243e-01
        38         2       -4.308808e-01
        39         2       -3.355015e-01
        40         2        8.762527e-01
        41         2       -6.035050e-01
        42         2       -1.014686e+00
        43         2        1.036122e+00
        44         2        4.023545e-02
        45         2        6.006252e-01
        46         2        9.303833e-01
        47         2       -1.281687e-01
        48         2       -1.852134e+00
        49         2       -1.007098e+00
        50         2       -7.152903e-01
        51         2        5.245416e-01
        52         2       -1.036519e+00
        53         2        1.851141e-01
        54         2       -1.427854e-01
        55         2        3.568746e-02
        56         2        5.490681e-01
        57         2        8.994361e-01
        58         2       -7.312194e-01
        59         2       -5.064932e-01
        60         2        8.867574e-02
        61         2       -1.188182e+00
        62         2        2.241673e+00
        63         2        7.987876e-01
        64         2       -1.125748e+00
        65         2        1.005148e+00
        66         2        1.131913e+00
        67         2        1.228373e+00
        68         2        1.706523e-01
        69         2        7.637971e-01
        70         2       -5.844444e-01
        71         2       -8.440439e-01
        72         2       -1.317171e+00
        73         2        1.112635e+00
        74         2        5.437802e-01
        75         2       -4.315655e-02
        76         2       -1.220275e+00
        77         2        1.221846e+00
        78         2        6.684122e-01
        79         2        6.560643e-01
        80         2        1.147511e-01
        81         2        7.107913e-01
        82         2        1.735988e+00
        83         2        1.446699e+00
        84         2       -1.751403e+00
        85         2        2.175110e+00
        86         2        2.624760e-01
        87         2       -2.627531e-02
        88         2       -3.388102e-01
        89         2       -1.691446e+00
        90         2        9.689834e-01
        91         2       -2.078922e+00
        92         2        3.594756e-01
        93         2       -6.953247e-01
        94         2       -6.305791e-01
        95         2        1.535789e+00
        96         2       -1.589094e+00
        97         2       -7.696302e-02
        98         2       -1.598363e+00
        99         2       -2.565488e+00
       100         2       -4.206688e-01
         1         3        7.236827e-01
         2         3        7.991751e-01
         3         3       -1.181253e+00
         4         3        9.063996e-02
         5         3        1.167256e+00
         6         3       -2.457239e+00
         7         3        1.307327e+00
         8         3        1.012788e+00
         9         3       -1.270373e+00
        10         3        1.521515e-02
        11         3        5.638314e-01
        12         3        4.703598e-01
        13         3       -8.633997e-01
        14         3        4.678382e-01
        15         3        1.760695e-01
        16         3       -8.731921e-01
        17         3       -6.782097e-01
        18         3       -7.473814e-01
        19         3        3.794869e-01
        20         3       -8.938471e-01
        21         3       -2.655514e-01
        22         3       -1.320360e+00
        23         3        9.096430e-01
        24         3       -5.299713e-01
        25         3        2.162778e-01
        26         3       -1.340017e-02
        27         3       -6.604148e-01
        28         3        6.362921e-01
        29         3       -1.802683e+00
        30         3        1.308795e-01
        31         3        2.451896e-01
        32         3       -7.403626e-01
        33         3        1.108691e+00
        34         3       -1.707112e+00
        35         3        2.102762e-01
        36         3       -3.395673e-01
        37         3       -4.210703e-01
        38         3       -5.174367e-01
        39         3       -9.848939e-01
        40         3       -3.852136e-01
        41         3       -9.746359e-01
        42         3       -1.602946e-01
        43         3        2.423597e-01
        44         3        2.522851e-01
        45         3        5.897072e-01
        46         3        5.146462e-01
        47         3       -1.398435e+00
        48         3       -3.720226e-01
        49         3       -6.596345e-01
        50         3       -7.093741e-02
        51         3       -2.568522e-01
        52         3        1.106339e+00
        53         3       -4.100482e-01
        54         3       -8.890092e-01
        55         3        3.560761e-01
        56         3       -7.334673e-01
        57         3       -7.433911e-01
        58         3       -5.507778e-01
        59         3       -4.321804e-01
        60         3       -5.508315e-01
        61         3       -1.283898e+00
        62         3       -1.306193e-01
        63         3        1.061342e+00
        64         3        1.441243e+00
        65         3       -1.315919e+00
        66         3       -1.348828e+00
        67         3        2.342386e-02
        68         3        1.372379e+00
        69         3        2.247772e-01
        70         3        2.250748e-01
        71         3        1.508984e+00
        72         3       -1.007678e-01
        73         3       -8.195264e-01
        74         3       -4.578331e-01
        75         3       -2.032333e-01
        76         3        1.491232e+00
        77         3        1.934613e+00
        78         3        2.237349e-01
        79         3       -1.292596e+00
        80         3       -7.760345e-01
        81         3        5.792924e-02
        82         3        5.010121e-01
        83         3       -1.012619e+00
        84         3       -3.436049e-01
        85         3        4.512417e-01
        86         3        5.464774e-01
        87         3       -1.698112e+00
        88         3       -9.664291e-01
        89         3        3.644677e-01
        90         3        1.057271e+00
        91         3       -8.031928e-01
        92         3        5.636802e-01
        93         3       -5.209418e-01
        94         3        2.205265e-01
        95         3        1.320010e+00
        96         3        6.938554e-02
        97         3        5.702355e-01
        98         3        1.141280e+00
        99         3        1.634600e+00
       100         3        7.533639e-01
         1         4        2.385328e+00
         2         4        1.858818e+00
         3         4       -2.086018e-01
         4         4       -1.361325e+00
         5         4        1.643579e+00
         6         4        2.702524e-01
         7         4       -1.965031e+00
         8         4        2.322738e-01
         9         4       -1.239075e+00
        10         4        1.377598e+00
        11         4       -1.172800e+00
        12         4       -7.923408e-01
        13         4        4.160223e-01
        14         4       -1.169736e+00
        15         4        1.549134e+00
        16         4        1.142048e+00
        17         4        3.061299e-01
        18         4       -1.246348e-01
        19         4       -1.842253e+00
        20         4       -6.707576e-01
        21         4        9.773811e-01
        22         4       -2.342080e-01
        23         4        4.034448e-01
        24         4       -5.884035e-01
        25         4        1.716659e+00
        26         4       -3.965934e-02
        27         4       -1.047976e+00
        28         4        1.349920e+00
        29         4       -1.332803e+00
        30         4        3.845478e-01
        31         4       -2.485640e-01
        32         4        1.798076e-01
        33         4       -3.534310e-01
        34         4       -7.633230e-01
        35         4       -7.523826e-01
        36         4       -9.082784e-01
        37         4        3.545257e-01
        38         4       -2.223573e+00
        39         4        5.416527e-01
        40         4        3.703732e-01
        41         4       -3.745556e-01
        42         4       -1.177880e+00
        43         4        8.894522e-01
        44         4       -6.038946e-01
        45         4       -2.151594e-01
        46         4        6.876604e-01
        47         4        1.139625e+00
        48         4       -1.105186e+00
        49         4        2.769560e+00
        50         4       -6.283223e-01
        51         4       -2.325944e-02
        52         4        1.303888e+00
        53         4       -1.201405e+00
        54         4        3.611344e-01
        55         4       -4.448474e-01
        56         4        1.528840e+00
        57         4       -5.214472e-01
        58         4        2.451756e+00
        59         4        8.071007e-01
        60         4       -1.159448e+00
        61         4        4.689535e-01
        62         4        1.103755e-01
        63         4        1.109340e+00
        64         4        4.025063e-02
        65         4        1.126620e+00
        66         4        6.503650e-03
        67         4       -2.928896e-01
        68         4        6.602585e-01
        69         4        2.068887e-01
        70         4       -4.954888e-01
        71         4       -4.317794e-01
        72         4        1.652121e+00
        73         4       -2.393191e+00
        74         4       -8.170411e-01
        75         4        2.796788e-01
        76         4       -7.301789e-01
        77         4        5.822125e-01
        78         4       -1.926605e-01
        79         4       -1.290046e+00
        80         4       -2.201828e+00
        81         4       -1.725850e+00
        82         4       -6.721875e-01
        83         4        3.624302e-01
        84         4        1.794444e+00
        85         4       -5.363866e-01
        86         4       -1.265480e+00
        87         4        4.290307e-02
        88         4        7.205958e-01
        89         4        3.557676e-01
        90         4       -4.968893e-01
        91         4       -6.855291e-01
        92         4       -2.619804e-01
        93         4        5.707692e-01
        94         4       -1.312807e+00
        95         4        3.623938e-02
        96         4        4.665961e-01
        97         4       -3.975391e-01
        98         4       -1.498154e+00
        99         4        9.440899e-01
       100         4       -5.839914e-01
         1         5        8.403991e-01
         2         5       -7.832288e-01
         3         5        1.709935e+00
         4         5       -1.078776e-01
         5         5       -1.199566e+00
         6         5       -1.688521e+00
         7         5        1.401094e+00
         8         5        2.772791e-02
         9         5       -3.438324e-01
        10         5       -3.688325e-01
        11         5        5.474560e-01
        12         5       -1.908974e+00
        13         5       -1.334795e+00
        14         5        9.172466e-01
        15         5        6.484544e-01
        16         5       -6.263859e-01
        17         5       -1.202637e+00
        18         5       -1.550008e+00
        19         5        1.899842e+00
        20         5       -5.370950e-01
        21         5       -1.380455e+00
        22         5        7.082571e-01
        23         5       -5.846409e-01
        24         5       -3.581575e-02
        25         5       -3.245172e-01
        26         5        1.061970e+00
        27         5        5.021643e-01
        28         5       -2.312638e+00
        29         5       -9.131723e-01
        30         5       -1.163159e+00
        31         5       -1.398693e+00
        32         5        4.369525e-01
        33         5        4.773358e-01
        34         5        6.695114e-01
        35         5       -8.045374e-01
        36         5       -2.364076e+00
        37         5       -8.241326e-01
        38         5       -4.333226e-01
        39         5       -1.109772e+00
        40         5       -4.300690e-01
        41         5       -9.947629e-01
        42         5        3.232351e-01
        43         5       -4.988084e-01
        44         5       -1.742327e+00
        45         5        5.549936e-01
        46         5       -9.767638e-01
        47         5        5.561348e-01
        48         5       -4.535490e-01
        49         5       -1.250288e+00
        50         5        5.950184e-01
        51         5       -2.898311e-01
        52         5       -9.554027e-01
        53         5        1.400167e+00
        54         5        3.281088e-01
        55         5       -1.821798e+00
        56         5        1.216687e+00
        57         5       -5.391746e-01
        58         5       -8.155580e-01
        59         5        1.505136e+00
        60         5        2.997075e-01
        61         5        2.039545e+00
        62         5        6.454675e-01
        63         5       -2.563051e-01
        64         5       -1.721605e-02
        65         5        2.645850e-01
        66         5        6.490159e-01
        67         5        3.485943e-02
        68         5        1.708089e-01
        69         5       -4.291963e-01
        70         5       -1.045511e+00
        71         5        1.821244e-01
        72         5       -7.902170e-01
        73         5       -4.906028e-01
        74         5       -6.537555e-01
        75         5       -1.208556e+00
        76         5       -5.152351e-01
        77         5       -4.453481e-01
        78         5       -1.416293e-01
        79         5       -1.651799e+00
        80         5       -3.713088e-01
        81         5        4.773873e-01
        82         5        1.333408e+00
        83         5        1.230924e+00
        84         5        4.196794e-01
        85         5        5.223415e-02
        86         5       -3.047446e-01
        87         5        1.148789e+00
        88         5        2.186804e+00
        89         5       -2.433872e-01
        90         5       -1.051758e+00
        91         5       -1.992878e+00
        92         5       -1.839020e+00
        93         5        3.878970e-01
        94         5        1.189762e+00
        95         5        3.069069e-01
        96         5        2.126390e-01
        97         5       -1.973507e-03
        98         5       -9.378988e-01
        99         5        1.033595e+00
       100         5       -2.027067e+00
;

param theta:=
    1       -1.467072e+00
    2       -1.277264e+00
    3        4.249322e-01
    4        4.838009e-01
    5        7.430005e-01
;
param X_true:=
    1       -2.608338e-01
    2       -1.081823e+00
    3       -2.112577e-01
    4       -2.146501e-02
    5       -1.345544e+00
    6       -4.824086e+00
    7        6.298444e-01
    8       -9.520182e-01
    9        1.177688e+00
   10        5.631875e-01
   11        6.482359e-01
   12       -1.335695e+00
   13       -2.123934e+00
   14       -1.064117e-02
   15       -1.628769e+00
   16        2.542961e-01
   17        2.873515e-03
   18        5.409919e-01
   19       -9.655710e-01
   20       -1.246984e+00
   21       -1.479836e+00
   22       -1.821970e-01
   23       -1.954413e+00
   24       -3.782095e-01
   25       -1.622496e+00
   26       -3.595191e-01
   27       -2.838835e+00
   28       -1.366157e+00
   29       -2.878753e+00
   30        2.161377e+00
   31       -1.728106e+00
   32       -2.757527e-01
   33        4.677098e+00
   34       -2.983223e+00
   35       -2.368104e+00
   36       -9.334504e-01
   37        4.990470e-01
   38       -2.338939e+00
   39       -2.245719e+00
   40        1.035414e+00
   41       -6.120480e-01
   42        8.262449e-01
   43       -1.068471e+00
   44       -2.303526e+00
   45        7.049458e-01
   46       -2.892574e+00
   47        5.985139e-02
   48       -1.526223e-01
   49        1.801827e+00
   50        1.824224e+00
   51       -1.713280e+00
   52        3.176025e+00
   53       -2.553869e+00
   54       -1.665825e+00
   55       -1.145259e+00
   56        3.078247e-01
   57       -2.995643e+00
   58        2.198095e+00
   59        5.217473e-01
   60       -8.000200e-01
   61       -3.214841e-01
   62       -3.318836e+00
   63        1.735022e-01
   64        2.565139e+00
   65       -1.031220e+00
   66       -1.343241e+00
   67       -1.909047e+00
   68        3.118597e-03
   69        6.325171e-02
   70        3.969233e-01
   71        2.781094e+00
   72        1.375592e+00
   73       -4.218461e+00
   74       -2.348689e+00
   75       -1.576639e+00
   76        1.499721e+00
   77       -2.445869e+00
   78       -7.898837e-01
   79       -4.241038e+00
   80       -4.191364e+00
   81       -4.722186e+00
   82        3.348066e+00
   83        1.301869e+00
   84        5.391684e+00
   85       -2.089889e+00
   86       -4.490851e-01
   87        3.319991e+00
   88        2.904969e+00
   89        2.281241e+00
   90        2.796394e-01
   91       -2.565192e-01
   92       -1.478298e+00
   93        1.068988e+00
   94        3.343067e+00
   95       -5.044492e-01
   96        7.497765e-01
   97        1.574499e+00
   98        1.574045e+00
   99        2.332769e+00
  100        7.964948e-01
;
param X:=
    1       -3.319453e-01
    2       -2.499680e-01
    3       -7.277144e-01
    4       -1.182084e+00
    5       -1.345544e+00
    6       -4.824086e+00
    7        6.298444e-01
    8       -9.520182e-01
    9        1.177688e+00
   10        5.603024e-01
   11        6.482359e-01
   12       -1.335695e+00
   13        1.157878e+00
   14       -2.235917e-01
   15        3.055194e-01
   16        2.542961e-01
   17       -1.142350e+00
   18        5.409919e-01
   19       -1.132453e+00
   20       -1.246984e+00
   21       -1.479836e+00
   22       -1.821970e-01
   23       -1.954413e+00
   24       -3.782095e-01
   25        1.088821e+00
   26        1.007802e+00
   27       -2.838835e+00
   28       -7.245330e-01
   29       -2.878753e+00
   30        2.161377e+00
   31       -1.728106e+00
   32        8.028752e-01
   33        4.677098e+00
   34        3.054682e-01
   35       -2.870468e-01
   36        1.271923e+00
   37        4.990470e-01
   38        5.302799e-01
   39       -2.245719e+00
   40       -7.908056e-01
   41       -6.120480e-01
   42        8.262449e-01
   43       -1.068471e+00
   44       -2.303526e+00
   45       -8.658295e-01
   46        1.047838e-01
   47        5.985139e-02
   48       -3.218248e-01
   49       -4.725951e-01
   50        6.476905e-01
   51       -7.962607e-01
   52       -3.962694e-01
   53       -2.553869e+00
   54        1.928464e-01
   55       -1.145259e+00
   56       -1.075840e-01
   57       -7.374980e-02
   58        8.828317e-01
   59        5.412522e-01
   60       -8.000200e-01
   61       -3.214841e-01
   62        7.564482e-01
   63        8.051124e-01
   64        2.565139e+00
   65       -5.726962e-01
   66       -1.343241e+00
   67       -1.909047e+00
   68        6.520132e-01
   69        6.325171e-02
   70        8.851611e-01
   71        2.781094e+00
   72        1.027758e+00
   73       -6.231467e-01
   74       -2.348689e+00
   75       -1.576639e+00
   76        6.107217e-02
   77       -2.445869e+00
   78       -1.029803e+00
   79       -6.829338e-01
   80       -4.191364e+00
   81       -4.722186e+00
   82        3.348066e+00
   83       -1.990766e+00
   84        5.391684e+00
   85       -2.089889e+00
   86       -4.490851e-01
   87        3.319991e+00
   88       -1.250098e-01
   89        3.981164e+00
   90        2.796394e-01
   91        2.028753e+00
   92       -1.478298e+00
   93        6.251094e-01
   94        8.139617e-03
   95       -5.044492e-01
   96        7.497765e-01
   97        1.574499e+00
   98        4.651397e-01
   99       -2.266688e-01
  100        8.794647e-01
;
param outliervec:=
    1    1
    2    1
    3    1
    4    1
    5    0
    6    0
    7    0
    8    0
    9    0
   10    1
   11    0
   12    0
   13    1
   14    1
   15    1
   16    0
   17    1
   18    0
   19    1
   20    0
   21    0
   22    0
   23    0
   24    0
   25    1
   26    1
   27    0
   28    1
   29    0
   30    0
   31    0
   32    1
   33    0
   34    1
   35    1
   36    1
   37    0
   38    1
   39    0
   40    1
   41    0
   42    0
   43    0
   44    0
   45    1
   46    1
   47    0
   48    1
   49    1
   50    1
   51    1
   52    1
   53    0
   54    1
   55    0
   56    1
   57    1
   58    1
   59    1
   60    0
   61    0
   62    1
   63    1
   64    0
   65    1
   66    0
   67    0
   68    1
   69    0
   70    1
   71    0
   72    1
   73    1
   74    0
   75    0
   76    1
   77    0
   78    1
   79    1
   80    0
   81    0
   82    0
   83    1
   84    0
   85    0
   86    0
   87    0
   88    1
   89    1
   90    0
   91    1
   92    0
   93    1
   94    1
   95    0
   96    0
   97    0
   98    1
   99    1
  100    1
;